data;

param N := 7;
param K := 3;
param C := 10;

# param c (tr):
#         1  2  3  4  5 :=
#     1  0   1   2   1.5 1
#     2  1   0   1.5 1   1.5
#     3  2   1.5 0   1.5 2
#     4  1.5 1   1.5 0   1
#     5  1   1.5 2   1   0;

param c (tr):
        1   2   3   4   5   6   7 :=
    1   9   2   4   2   4   2   3
    2   2   9   2   1   3   3   4
    3   4   2   9   2   3   4   6
    4   2   1   2   9   2   2   4
    5   4   3   3   2   9   2   4
    6   2   3   4   2   2   9   2
    7   3   4   6   4   4   2   9;

param d:=1 2 
        2 3
        3 5
        4 5
        5 4
        6 8;
